Rodando pra 1h

Optimize a model with 360087 rows, 539172 columns and 13282111 nonzeros
Coefficient statistics:
  Matrix range    [1e+00, 1e+04]
  Objective range [4e-01, 6e-01]
  Bounds range    [1e+00, 1e+04]
  RHS range       [1e+00, 1e+04]
Presolve removed 0 rows and 0 columns (presolve time = 6s) ...
Presolve removed 0 rows and 0 columns (presolve time = 14s) ...
Presolve removed 6 rows and 6 columns (presolve time = 22s) ...
Presolve removed 6 rows and 6 columns (presolve time = 31s) ...
Presolve removed 6 rows and 6 columns (presolve time = 37s) ...
Presolve removed 6 rows and 6 columns (presolve time = 40s) ...
Presolve removed 6 rows and 6 columns (presolve time = 46s) ...
Presolve removed 6 rows and 6 columns (presolve time = 51s) ...
Presolve removed 6 rows and 6 columns (presolve time = 57s) ...
Presolve removed 6 rows and 6 columns (presolve time = 63s) ...
Presolve removed 6 rows and 6 columns (presolve time = 65s) ...
Presolve removed 6 rows and 6 columns (presolve time = 71s) ...
Presolve removed 6 rows and 6 columns (presolve time = 77s) ...
Presolve removed 6 rows and 6 columns (presolve time = 80s) ...
Presolve removed 6 rows and 6 columns (presolve time = 86s) ...
Presolve removed 6 rows and 6 columns (presolve time = 92s) ...
Presolve removed 6 rows and 6 columns (presolve time = 95s) ...
Presolve removed 6 rows and 6 columns (presolve time = 102s) ...
Presolve removed 6 rows and 6 columns (presolve time = 108s) ...
Presolve removed 6 rows and 6 columns (presolve time = 111s) ...
Presolve removed 6 rows and 6 columns (presolve time = 117s) ...
Presolve removed 6 rows and 6 columns (presolve time = 123s) ...
Presolve removed 6 rows and 6 columns (presolve time = 126s) ...
Presolve removed 6 rows and 6 columns (presolve time = 132s) ...
Presolve removed 6 rows and 6 columns (presolve time = 135s) ...
Presolve removed 6 rows and 6 columns (presolve time = 141s) ...
Presolve removed 6 rows and 6 columns (presolve time = 147s) ...
Presolve removed 6 rows and 6 columns (presolve time = 151s) ...
Presolve removed 6 rows and 6 columns (presolve time = 157s) ...
Presolve removed 6 rows and 6 columns (presolve time = 163s) ...
Presolve removed 6 rows and 6 columns (presolve time = 166s) ...
Presolve removed 6 rows and 6 columns (presolve time = 172s) ...
Presolve removed 6 rows and 6 columns (presolve time = 184s) ...
Presolve removed 6 rows and 6 columns (presolve time = 189s) ...
Presolve removed 6 rows and 6 columns (presolve time = 211s) ...
Presolve removed 6 rows and 6 columns
Presolve time: 211.43s
Presolved: 360081 rows, 539166 columns, 13282099 nonzeros
Variable types: 359400 continuous, 179766 integer (179764 binary)
Optimize a model with 360081 rows, 539166 columns and 13282099 nonzeros
Coefficient statistics:
  Matrix range    [1e+00, 1e+04]
  Objective range [4e-01, 6e-01]
  Bounds range    [1e+00, 1e+04]
  RHS range       [1e+00, 1e+04]
Presolve removed 0 rows and 0 columns (presolve time = 8s) ...
Presolve removed 0 rows and 0 columns (presolve time = 11s) ...
Presolved: 360081 rows, 539166 columns, 13282099 nonzeros


Root simplex log...

Iteration    Objective       Primal Inf.    Dual Inf.      Time
       0    0.0000000e+00   1.810585e+03   0.000000e+00    264s
    1255    0.0000000e+00   2.553760e+03   0.000000e+00    265s
    1921    2.5897775e-04   2.517636e+04   0.000000e+00    295s
    2238    4.0791904e-04   1.143899e+06   0.000000e+00    309s
    2576    5.8039199e-04   2.534993e+04   0.000000e+00    324s
    3017    8.4116241e-04   1.470753e+05   0.000000e+00    343s
    3334    1.0329033e-03   8.953951e+05   0.000000e+00    355s
    3651    1.2441759e-03   1.733730e+05   0.000000e+00    368s
    3970    1.4197002e-03   1.356699e+05   0.000000e+00    379s
    4340    1.5518706e-03   1.158967e+05   0.000000e+00    388s
    5367    1.7942935e-03   3.154871e+06   0.000000e+00    445s
    6107    2.0829887e-03   1.297114e+05   0.000000e+00    488s
    6561    2.3629332e-03   8.860336e+04   0.000000e+00    511s
    7049    2.6514897e-03   2.102704e+05   0.000000e+00    538s
    7423    2.7415126e-03   9.728210e+04   0.000000e+00    553s
    7743    2.9415686e-03   8.793005e+04   0.000000e+00    572s
    8171    3.2419463e-03   2.147609e+05   0.000000e+00    596s
    9726    3.2787290e-03   1.053320e+05   0.000000e+00    697s
   11994    3.2916768e-03   1.488010e+05   0.000000e+00    851s
   13414    3.0561938e-02   1.094925e+07   0.000000e+00    897s
   14833    1.4627432e+01   8.381843e+04   0.000000e+00    931s
   16308    1.4628336e+01   8.783639e+04   0.000000e+00    964s
   17831    1.4629416e+01   8.480917e+04   0.000000e+00    999s
   19794    1.4629673e+01   8.281107e+04   0.000000e+00   1050s
   21673    1.4630051e+01   8.893626e+04   0.000000e+00   1098s
   23129    1.4635105e+01   8.191660e+04   0.000000e+00   1136s
   24794    1.4954794e+01   6.009204e+04   0.000000e+00   1181s
   26293    1.5045990e+01   7.366398e+04   0.000000e+00   1223s
   27816    1.5160513e+01   3.845525e+04   0.000000e+00   1268s
   29994    1.5373669e+01   6.046789e+04   0.000000e+00   1336s
   32198    1.5672590e+01   5.768986e+04   0.000000e+00   1409s
   34108    1.5804480e+01   8.263127e+04   0.000000e+00   1475s
   35444    1.5848687e+01   9.135321e+04   0.000000e+00   1524s
   37231    1.5920559e+01   5.143734e+04   0.000000e+00   1591s
   39958    1.6117750e+01   4.218053e+04   0.000000e+00   1702s
   42368    1.6224322e+01   8.369315e+04   0.000000e+00   1789s
   44335    1.6268540e+01   8.871097e+03   0.000000e+00   1849s
   47107    1.6385708e+01   1.297077e+04   0.000000e+00   1945s
   49903    1.6596392e+01   7.027218e+04   0.000000e+00   2049s
   52421    1.6669247e+01   9.866607e+04   0.000000e+00   2144s
   55139    1.6783859e+01   3.179338e+04   0.000000e+00   2252s
   57065    1.6836808e+01   1.145980e+05   0.000000e+00   2329s
   60039    1.6980089e+01   3.805503e+04   0.000000e+00   2454s
   62775    1.7091332e+01   3.211538e+04   0.000000e+00   2571s
   66327    1.7214401e+01   6.523228e+04   0.000000e+00   2729s
   69073    1.7262583e+01   4.305138e+04   0.000000e+00   2848s
   71902    1.7304387e+01   1.159972e+04   0.000000e+00   2973s
   74793    1.7360838e+01   1.013100e+04   0.000000e+00   3115s
   78401    1.7432974e+01   3.210029e+04   0.000000e+00   3301s
   82491    1.7552540e+01   1.339342e+04   0.000000e+00   3502s

Root relaxation: time limit, 84702 iterations, 3350.03 seconds

    Nodes    |    Current Node    |     Objective Bounds      |     Work
 Expl Unexpl |  Obj  Depth IntInf | Incumbent    BestBd   Gap | It/Node Time

     0     0          -    0               -          -      -     - 3600s

Explored 0 nodes (84702 simplex iterations) in 3600.06 seconds
Thread count was 1 (of 4 available processors)

Time limit reached
Best objective -, best bound -, gap -
Tempo: 3594.35 segundos

Error code = 10004
Var::get
